; benchmark generated from python API
(set-info :status unknown)
(declare-fun S_3 () Real)
(declare-fun C () Real)
(declare-fun L_1 () Real)
(declare-fun A_1 () Real)
(declare-fun S_5 () Real)
(declare-fun S_4 () Real)
(declare-fun L_2 () Real)
(declare-fun A_2 () Real)
(declare-fun S_1 () Real)
(declare-fun S_2 () Real)
(declare-fun A_5 () Real)
(declare-fun L_3 () Real)
(declare-fun L_0 () Real)
(declare-fun S_0 () Real)
(declare-fun A_0 () Real)
(declare-fun B () Real)
(declare-fun A_4 () Real)
(declare-fun A_3 () Real)
(assert
 (let (($x39 (>= L_0 0.0)))
 (let (($x739 (>= C 5.0)))
 (let (($x962 (>= B 5.0)))
 (let ((?x404 (* (- 1.0) S_1)))
 (let ((?x1227 (* (- 4.0) C)))
 (let ((?x268 (* (- 1.0) B)))
 (let ((?x448 (* (- 1.0) A_5)))
 (let (($x11150 (<= (+ S_5 A_4 ?x448 ?x268 (* (- 5.0) C) (* (- 1.0) S_0)) 0.0)))
 (let (($x10790 (<= (+ S_5 A_4 ?x448 ?x268 (* (- 2.0) C) (* (- 1.0) S_3)) 0.0)))
 (let (($x10777 (<= (+ S_5 A_4 ?x448 ?x268 (* (- 3.0) C) (* (- 1.0) S_2)) 0.0)))
 (let (($x4382 (<= (+ S_5 A_4 ?x448 (* (- 1.0) A_1) L_1 (* (- 3.0) C) ?x268) 0.0)))
 (let (($x5790 (<= (+ (* (- 1.0) A_2) L_2 S_5 A_4 ?x448 (* (- 2.0) C) ?x268) 0.0)))
 (let (($x11178 (<= (+ S_5 (* (- 1.0) S_4) A_4 ?x448 ?x268 (* (- 1.0) C)) 0.0)))
 (let (($x1708 (<= (+ A_2 (* (- 1.0) L_2) (* (- 1.0) S_3)) 0.0)))
 (let (($x10372 (or $x1708 (<= (+ (* (- 1.0) S_3) (* 2.0 C) S_0) 0.0) (<= (+ A_1 (* (- 1.0) L_1) C (* (- 1.0) S_3)) 0.0))))
 (let (($x7141 (<= (+ (* (- 1.0) S_5) (* 4.0 C) S_0) 0.0)))
 (let (($x3215 (<= (+ (* (- 1.0) S_5) A_1 (* (- 1.0) L_1) (* 3.0 C)) 0.0)))
 (let (($x2690 (<= (+ (* (- 1.0) S_5) (* (- 1.0) L_3) A_4) 0.0)))
 (let (($x1700 (<= (+ A_2 (* (- 1.0) L_2) (* (- 1.0) S_5) (* 2.0 C)) 0.0)))
 (let (($x7289 (<= (+ (* (- 1.0) S_5) (* 3.0 C) S_1) 0.0)))
 (let (($x1704 (<= (+ A_2 (* (- 1.0) L_2) (* (- 1.0) S_4) C) 0.0)))
 (let (($x4581 (<= (+ (* (- 1.0) A_2) L_2 S_5 A_4 ?x448 (* (- 2.0) C)) 0.0)))
 (let (($x66 (= L_2 L_1)))
 (let (($x5040 (<= (+ S_5 A_4 ?x448 (* (- 1.0) A_1) (* (- 3.0) C) L_1) 0.0)))
 (let (($x56 (= L_1 L_0)))
 (let (($x1893 (<= (+ A_2 (* (- 1.0) L_2) (* (- 1.0) S_5) (* 2.0 C) ?x268) 0.0)))
 (let (($x13363 (or $x66 (<= (+ (* (- 1.0) A_2) L_2 S_5 (* (- 3.0) C) B) 0.0))))
 (let ((?x352 (* (- 1.0) C)))
 (let ((?x437 (* (- 1.0) A_1)))
 (let ((?x294 (* (- 1.0) L_2)))
 (let (($x12887 (<= 0.0 (+ A_2 ?x294 ?x437 ?x352 L_1 ?x268))))
 (let (($x3273 (= (+ (* (- 1.0) A_2) L_2 A_1 (* (- 1.0) L_1) C B) 0.0)))
 (let (($x1919 (<= (+ A_2 ?x294 (* (- 1.0) A_0) (* (- 2.0) C) ?x268 L_0) 0.0)))
 (let (($x6621 (<= (+ (* (- 1.0) S_5) (* 2.0 C) S_2) 0.0)))
 (let ((?x445 (* (- 1.0) A_4)))
 (let ((?x2182 (+ A_3 ?x445 C)))
 (let (($x11653 (<= 0.0 ?x2182)))
 (let (($x563 (<= 0.0 (+ (* (- 1.0) A_2) L_2 A_1 C (* (- 1.0) L_1) ?x268))))
 (let (($x559 (not $x563)))
 (let (($x1095 (<= (+ (* (- 1.0) S_5) A_1 (* 3.0 C) (* (- 1.0) L_1) ?x268) 0.0)))
 (let (($x12920 (<= 0.0 (+ (* (- 1.0) A_2) L_2 A_1 (* (- 1.0) L_1) C))))
 (let (($x12895 (<= 0.0 (+ (* (- 1.0) A_2) L_2 (* (- 1.0) L_3) A_3 ?x352 ?x268))))
 (let (($x22155 (or (= (+ A_2 ?x294 L_3 (* (- 1.0) A_3) C B) 0.0) (not $x12895))))
 (let (($x2022 (<= (+ (* (- 1.0) L_3) A_3 (* (- 2.0) C) (* (- 1.0) S_2) ?x268) 0.0)))
 (let (($x21982 (or $x66 (= (+ (* (- 1.0) A_2) L_2 A_1 C (* (- 1.0) L_1)) 0.0) (not $x12920))))
 (let (($x1205 (<= (+ (* (- 1.0) S_4) A_1 (* 2.0 C) (* (- 1.0) L_1) ?x268) 0.0)))
 (let (($x21488 (or (<= (+ A_1 C (* (- 1.0) S_3) (* (- 1.0) L_1) ?x268) 0.0) $x1708)))
 (let (($x12961 (<= 0.0 (+ L_3 (* (- 1.0) A_3) A_1 (* (- 1.0) L_1) (* 2.0 C)))))
 (let (($x12924 (<= 0.0 (+ (* (- 1.0) L_3) A_3 ?x437 (* (- 2.0) C) L_1 ?x268))))
 (let ((?x1087 (* 2.0 C)))
 (let ((?x277 (* (- 1.0) L_1)))
 (let ((?x442 (* (- 1.0) A_3)))
 (let (($x76 (= L_3 L_2)))
 (let (($x769 (not $x56)))
 (let (($x21544 (or $x76 $x769 (<= (+ L_3 ?x442 A_1 ?x1087 (* (- 1.0) L_0)) 0.0) $x12895)))
 (let ((?x1177 (* (- 3.0) C)))
 (let ((?x1336 (* (- 1.0) A_0)))
 (let ((?x311 (* (- 1.0) L_3)))
 (let (($x13047 (or $x76 (<= (+ L_3 ?x442 (* 3.0 C) S_0 B) 0.0) $x12895 $x12924)))
 (let (($x13029 (or (<= (+ A_1 ?x277 (* (- 1.0) S_2)) 0.0) (<= (+ C (* (- 1.0) S_2) S_0) 0.0))))
 (let (($x4232 (or $x1704 (<= (+ (* (- 1.0) S_4) (* 3.0 C) S_0) 0.0) (<= (+ (* (- 1.0) S_4) A_1 ?x277 ?x1087) 0.0))))
 (let (($x12780 (not (<= 0.0 (+ L_2 ?x311)))))
 (let (($x22055 (or $x66 (<= (+ (* (- 1.0) A_2) L_2 ?x1087 S_0 B) 0.0) $x12887)))
 (let (($x12853 (or $x66 (<= (+ (* (- 1.0) A_2) L_2 S_4 (* (- 2.0) C) B) 0.0))))
 (let (($x22166 (or $x76 (not (<= 0.0 (+ A_2 ?x294 L_3 ?x442 C))) (= (+ A_2 ?x294 L_3 ?x442 C) 0.0))))
 (let (($x1297 (<= (+ A_1 (* (- 1.0) S_2) ?x277 ?x268) 0.0)))
 (let (($x140 (>= S_5 S_4)))
 (let (($x128 (>= S_1 S_0)))
 (let (($x131 (>= S_2 S_1)))
 (let (($x134 (>= S_3 S_2)))
 (let (($x137 (>= S_4 S_3)))
 (let (($x142 (>= A_1 A_0)))
 (let (($x143 (>= A_2 A_1)))
 (let (($x145 (>= A_4 A_3)))
 (let (($x146 (>= A_5 A_4)))
 (and (<= (+ A_2 ?x294) S_4) (not (<= (+ A_3 ?x311) S_4)) $x146 $x145 $x143 $x142 $x137 $x134 $x131 $x128 $x140 (or (not (<= 0.0 (+ ?x277 L_0))) $x56) (or $x56 (<= (+ ?x437 C S_0 L_1 B) 0.0)) (or $x56 (<= (+ ?x437 S_1 L_1 B) 0.0)) (<= (+ A_1 ?x1336 ?x352 ?x277 ?x268 L_0) 0.0) (<= (+ A_1 (* (- 2.0) C) (* (- 1.0) S_0) ?x277 ?x268) 0.0) (or (not (<= 0.0 (+ ?x294 L_1))) $x66) $x1297 (<= (+ A_1 ?x352 ?x404 ?x277 ?x268) 0.0) (or $x56 (<= (+ ?x437 (* (- 2.0) C) S_3 L_1 B) 0.0)) (or $x66 (<= (+ (* (- 1.0) A_2) L_2 ?x352 S_3 B) 0.0)) (<= (+ A_2 ?x294 ?x352 (* (- 1.0) S_2) ?x268) 0.0) (or $x66 (<= 0.0 (+ A_2 ?x294 L_3 ?x442 C))) (or $x76 (<= (+ L_3 ?x442 C S_2 B) 0.0)) (or $x66 (<= (+ (* (- 1.0) A_2) L_2 S_2 B) 0.0)) (or $x12780 $x76) (or $x76 (<= (+ L_3 ?x442 S_3 B) 0.0)) $x22166 (or $x66 (<= (+ (* (- 1.0) A_2) L_2 C S_1 B) 0.0)) $x12853 $x22055 (<= (+ ?x311 A_3 ?x352 (* (- 1.0) S_3) ?x268) 0.0) (<= (+ (* (- 1.0) S_4) ?x311 A_3 ?x268) 0.0) (<= (+ ?x311 A_3 ?x1227 (* (- 1.0) S_0) ?x268) 0.0) (or $x76 (<= (+ S_4 L_3 ?x442 ?x352 B) 0.0)) (<= (+ S_4 (* (- 5.0) C) (* (- 1.0) S_0)) 0.0) (or (<= (+ ?x294 A_3 ?x437 L_1 (* (- 2.0) C) ?x268) 0.0) $x12780) (or (<= (+ (* (- 1.0) S_5) ?x311 A_3 C ?x268) 0.0) $x2690) $x4232 (<= (+ A_2 ?x294 (* (- 1.0) S_4) C ?x268) 0.0) $x13029 (<= (+ ?x311 A_3 ?x1177 ?x404 ?x268) 0.0) (or $x76 (<= (+ L_3 ?x442 ?x1087 S_1 B) 0.0) $x12895) $x13047 (<= (+ ?x311 A_3 ?x1336 ?x1177 ?x268 L_0) 0.0) (or $x76 (<= (+ S_5 L_3 ?x442 (* (- 2.0) C) B) 0.0)) (or $x76 (<= (+ S_5 L_3 ?x442 A_4 ?x448 ?x352) 0.0)) (<= (+ S_5 L_3 ?x445 ?x352) 0.0) $x21544 (or $x76 $x559 $x12895) (or $x76 $x563 (= (+ L_3 ?x442 A_1 ?x1087 ?x277) 0.0) (not $x12961)) (or (= (+ L_3 ?x442 A_1 ?x277 ?x1087 B) 0.0) (not $x12924)) (or $x56 $x12961) (<= (+ A_2 ?x294 (* (- 1.0) S_3) ?x268) 0.0) $x21488 (or $x1205 $x1704) (or $x56 (<= (+ ?x437 ?x352 S_2 L_1 B) 0.0)) (or $x563 $x1095 $x11653) $x21982 $x2022 $x22155 (<= (+ (* (- 2.0) C) S_1 (* (- 1.0) S_0)) 0.0) (<= (+ A_2 ?x294 (* (- 2.0) C) ?x404 ?x268) 0.0) (<= (+ ?x1336 ?x352 S_1 L_0) 0.0) (or $x56 $x12920) (or $x559 $x1700 $x11653) (or $x2690 (<= (+ (* (- 1.0) S_5) C S_3) 0.0)) (or $x563 $x1095 $x2690) (or $x56 (<= (+ S_4 ?x437 ?x1177 L_1 B) 0.0)) (or $x56 (<= (+ S_5 ?x437 ?x1227 L_1 B) 0.0)) (or $x559 $x1700 $x2690) (or $x1893 $x11653) (or $x11653 $x6621) $x1919 (<= (+ A_2 ?x294 ?x1177 (* (- 1.0) S_0) ?x268) 0.0) (or $x3273 (not $x12887)) $x13363 (or $x1893 $x2690) (or $x56 $x5040) (or $x1708 (<= (+ C (* (- 1.0) S_3) S_1) 0.0)) (or $x66 $x4581) (or $x1704 (<= (+ (* (- 1.0) S_4) ?x1087 S_1) 0.0)) (or $x1700 $x7289 $x11653) (or $x1700 $x2690 $x7289) (<= (+ ?x1336 (* (- 2.0) C) S_2 L_0) 0.0) (<= (+ ?x437 L_1 ?x352 S_2) 0.0) (<= (+ S_5 ?x1336 (* (- 5.0) C) L_0) 0.0) (<= (+ S_4 ?x1177 (* (- 1.0) S_2)) 0.0) (<= (+ S_4 ?x1336 ?x1227 L_0) 0.0) (<= (+ (* (- 2.0) C) S_3 (* (- 1.0) S_2)) 0.0) (<= (+ ?x1177 S_2 (* (- 1.0) S_0)) 0.0) (or $x2690 $x6621) (<= (+ (* (- 2.0) C) S_2 ?x404) 0.0) (<= (+ ?x1336 ?x1177 S_3 L_0) 0.0) (<= (+ S_4 ?x1227 ?x404) 0.0) (<= (+ S_5 (* (- 6.0) C) (* (- 1.0) S_0)) 0.0) (<= (+ S_5 (* (- 5.0) C) ?x404) 0.0) (or $x1700 $x3215 $x7141 $x11653) (or $x1700 $x2690 $x3215 $x7141) $x10372 (<= (+ S_5 ?x1227 (* (- 1.0) S_2)) 0.0) (<= (+ ?x1227 S_3 (* (- 1.0) S_0)) 0.0) $x11178 (<= (+ S_5 A_4 ?x448 ?x1336 ?x268 ?x1227 L_0) 0.0) $x5790 $x4382 $x10777 $x10790 $x11150 (<= (+ S_5 A_4 ?x448 ?x268 ?x1227 ?x404) 0.0) $x962 $x739 $x39 (<= (+ (* (- 1.0) A_2) L_2 ?x352 S_3) 0.0) (<= (+ (* (- 1.0) A_2) L_2 S_2) 0.0) (<= (+ (* (- 1.0) A_2) L_2 S_5 ?x1177) 0.0) (<= (+ ?x1336 S_0 L_0) 0.0) (<= (+ ?x437 L_1 S_1) 0.0) (<= (+ S_4 (* (- 2.0) C) (* (- 1.0) S_3)) 0.0) (<= (+ S_5 L_3 ?x448) 0.0) (<= (+ (* (- 1.0) S_4) C S_2) 0.0) (<= (+ ?x1177 S_3 ?x404) 0.0) (<= (+ S_4 ?x437 L_1 ?x1177) 0.0) (<= (+ (* (- 1.0) A_2) L_2 S_4 (* (- 2.0) C)) 0.0) (<= (+ S_5 ?x437 L_1 ?x1227) 0.0) (<= (+ S_5 (* (- 1.0) S_4) (* (- 2.0) C)) 0.0) (<= (+ S_5 ?x1177 (* (- 1.0) S_3)) 0.0) (<= (+ ?x437 L_1 (* (- 2.0) C) S_3) 0.0))))))))))))))))))))))))))))))))))))))))))))))))))))))))))))))))))))))))))))))
(check-sat)
